
  25    0


   0  15 2 3 4 5 6 7 8 10 18 19 20 21 22 23 24 
   9   6 16 15 14 13 12 11 
   9   4 17 15 14 11 
  10   3 16 15 11 
   8   3 14 13 12 
   8   2 11 9 
   6   2 13 11 
   2   2 12 11 
   9   1 12 
   3   1 12 
   5   1 25
   4   1 25
   8   1 25
   1   1 25
   9   1 25
   8   1 25
   4   1 25
   3   1 25
   3   1 25
   8   1 25
   6   1 25
   9   1 25
   2   1 25
  10   1 25
   0   0 
